####################################################################### 
# 
# This file contains crystal structure data downloaded from the 
# Cambridge Structural Database (CSD) hosted by the Cambridge 
# Crystallographic Data Centre (CCDC).
# 
# Full information about CCDC data access policies and citation 
# guidelines are available at http://www.ccdc.cam.ac.uk/access/V1 
# 
# Audit and citation data items may have been added by the CCDC. 
# Please retain this information to preserve the provenance of 
# this file and to allow appropriate attribution of the data. 
# 
#######################################################################

data_CYHEXO
#This CIF has been generated from an entry in the Cambridge Structural Database
_database_code_depnum_ccdc_archive 'CCDC 1134620'
_database_code_CSD               CYHEXO
loop_
_citation_id
_citation_doi
_citation_year
1 10.1107/S0365110X64003140 1964
_audit_creation_method           'Created from the CSD'
_audit_update_record             
;
2018-02-19 downloaded from the CCDC.
;
_database_code_NBS               508307
_chemical_name_common            'Teaching Subset: Fundamental Chemistry'
_chemical_formula_moiety         'C6 H8 O2'
_chemical_name_systematic        Cyclohexane-1,4-dione
_chemical_absolute_configuration unk
_diffrn_ambient_temperature      133
_exptl_crystal_density_diffrn    1.332
#These two values have been output from a single CSD field.
_refine_ls_R_factor_gt           0.081
_refine_ls_wR_factor_gt          0.081
_diffrn_radiation_probe          x-ray
_symmetry_cell_setting           monoclinic
_symmetry_space_group_name_H-M   'P 21'
_symmetry_Int_Tables_number      4
_space_group_name_Hall           'P 2yb'
loop_
_symmetry_equiv_pos_site_id
_symmetry_equiv_pos_as_xyz
1 x,y,z
2 -x,1/2+y,-z
_cell_length_a                   6.650
_cell_length_b                   6.210
_cell_length_c                   6.870
_cell_angle_alpha                90
_cell_angle_beta                 99.82
_cell_angle_gamma                90
_cell_volume                     279.55
_cell_formula_units_Z            2
loop_
_atom_site_label
_atom_site_type_symbol
_atom_site_fract_x
_atom_site_fract_y
_atom_site_fract_z
C1 C 0.42730 0.17450 0.44660
C2 C 0.51680 0.17400 0.25640
C3 C 0.35590 0.22260 0.07240
C4 C 0.17320 0.07730 0.06010
C5 C 0.10030 0.02980 0.25410
C6 C 0.19790 0.17730 0.42280
H1 H 0.64100 0.28770 0.26800
H2 H 0.58600 0.01340 0.23700
H3 H 0.30700 0.38700 0.07900
H4 H 0.42100 0.20500 -0.06100
H5 H 0.13900 -0.13900 0.29800
H6 H -0.06200 0.03600 0.23700
H7 H 0.14400 0.33700 0.38900
H8 H 0.14900 0.12700 0.55800
O1 O 0.53840 0.17200 0.60620
O2 O 0.08980 0.00000 -0.09410

#END
