####################################################################### 
# 
# This file contains crystal structure data downloaded from the 
# Cambridge Structural Database (CSD) hosted by the Cambridge 
# Crystallographic Data Centre (CCDC).
# 
# Full information about CCDC data access policies and citation 
# guidelines are available at http://www.ccdc.cam.ac.uk/access/V1 
# 
# Audit and citation data items may have been added by the CCDC. 
# Please retain this information to preserve the provenance of 
# this file and to allow appropriate attribution of the data. 
# 
#######################################################################

data_ACETAC01
#This CIF has been generated from an entry in the Cambridge Structural Database
_database_code_depnum_ccdc_archive 'CCDC 1100639'
_database_code_CSD               ACETAC01
loop_
_citation_id
_citation_doi
_citation_year
1 10.3891/acta.chem.scand.24-0453 1970
_audit_creation_method           'Created from the CSD'
_audit_update_record             
;
2018-04-05 downloaded from the CCDC.
;
_database_code_NBS               500331
_chemical_name_common            'DrugBank: DB03166'
_chemical_formula_moiety         'C2 H4 O2'
_chemical_name_systematic        'Acetic acid'
_chemical_absolute_configuration unk
_diffrn_ambient_temperature      278
_exptl_crystal_density_diffrn    1.27
#These two values have been output from a single CSD field.
_refine_ls_R_factor_gt           0.065
_refine_ls_wR_factor_gt          0.065
_diffrn_radiation_probe          x-ray
_symmetry_cell_setting           orthorhombic
_symmetry_space_group_name_H-M   'P n a 21'
_symmetry_Int_Tables_number      33
_space_group_name_Hall           'P 2c -2n'
loop_
_symmetry_equiv_pos_site_id
_symmetry_equiv_pos_as_xyz
1 x,y,z
2 1/2-x,1/2+y,1/2+z
3 1/2+x,1/2-y,z
4 -x,-y,1/2+z
_cell_length_a                   13.310(1)
_cell_length_b                   4.090(1)
_cell_length_c                   5.769(1)
_cell_angle_alpha                90
_cell_angle_beta                 90
_cell_angle_gamma                90
_cell_volume                     314.052
_cell_formula_units_Z            4
loop_
_atom_site_label
_atom_site_type_symbol
_atom_site_fract_x
_atom_site_fract_y
_atom_site_fract_z
C1 C 0.16510 0.28580 0.17090
C2 C 0.08940 0.37620 0.34810
H1 H 0.18200 0.05100 -0.11600
H2 H 0.12800 0.51000 0.49100
H3 H 0.03300 0.54000 0.27900
H4 H 0.05300 0.16800 0.42100
O1 O 0.12870 0.10750 0.00000
O2 O 0.25290 0.37030 0.17690

#END
