####################################################################### 
# 
# This file contains crystal structure data downloaded from the 
# Cambridge Structural Database (CSD) hosted by the Cambridge 
# Crystallographic Data Centre (CCDC).
# 
# Full information about CCDC data access policies and citation 
# guidelines are available at http://www.ccdc.cam.ac.uk/access/V1 
# 
# Audit and citation data items may have been added by the CCDC. 
# Please retain this information to preserve the provenance of 
# this file and to allow appropriate attribution of the data. 
# 
#######################################################################

data_CYANAM01
#This CIF has been generated from an entry in the Cambridge Structural Database
_database_code_depnum_ccdc_archive 'CCDC 1134523'
_database_code_CSD               CYANAM01
loop_
_citation_id
_citation_doi
_citation_year
1 10.1107/S0108270188007851 1988
_audit_creation_method           'Created from the CSD'
_audit_update_record             
;
2018-02-19 downloaded from the CCDC.
;
_database_code_NBS               586650
_chemical_formula_moiety         'C1 H2 N2'
_chemical_name_systematic        Cyanamide
_chemical_properties_biological  'calcium salt is an anthelmintic agent'
_chemical_absolute_configuration unk
_diffrn_ambient_temperature      108
_exptl_crystal_density_diffrn    1.344
#These two values have been output from a single CSD field.
_refine_ls_R_factor_gt           0.051
_refine_ls_wR_factor_gt          0.051
_diffrn_radiation_probe          x-ray
_symmetry_cell_setting           orthorhombic
_symmetry_space_group_name_H-M   'P b c a'
_symmetry_Int_Tables_number      61
_space_group_name_Hall           '-P 2ac 2ab'
loop_
_symmetry_equiv_pos_site_id
_symmetry_equiv_pos_as_xyz
1 x,y,z
2 1/2-x,1/2+y,z
3 x,1/2-y,1/2+z
4 1/2-x,-y,1/2+z
5 -x,-y,-z
6 1/2+x,1/2-y,-z
7 -x,1/2+y,1/2-z
8 1/2+x,y,1/2-z
_cell_length_a                   6.856(1)
_cell_length_b                   6.628(1)
_cell_length_c                   9.147(1)
_cell_angle_alpha                90
_cell_angle_beta                 90
_cell_angle_gamma                90
_cell_volume                     415.654
_exptl_crystal_colour            colorless
_chemical_melting_point          318-319K
_cell_formula_units_Z            8
loop_
_atom_site_label
_atom_site_type_symbol
_atom_site_fract_x
_atom_site_fract_y
_atom_site_fract_z
N1 N 0.1459(1) 0.1699(1) 0.10179(9)
N2 N 0.1401(1) 0.0125(1) 0.34609(9)
C1 C 0.1412(1) 0.0837(1) 0.2312(1)
H1 H 0.197(2) 0.111(2) 0.022(1)
H2 H 0.059(2) 0.266(2) 0.087(1)

#END
