####################################################################### 
# 
# This file contains crystal structure data downloaded from the 
# Cambridge Structural Database (CSD) hosted by the Cambridge 
# Crystallographic Data Centre (CCDC).
# 
# Full information about CCDC data access policies and citation 
# guidelines are available at http://www.ccdc.cam.ac.uk/access/V1 
# 
# Audit and citation data items may have been added by the CCDC. 
# Please retain this information to preserve the provenance of 
# this file and to allow appropriate attribution of the data. 
# 
#######################################################################

data_CYTSIN01
#This CIF has been generated from an entry in the Cambridge Structural Database
_database_code_depnum_ccdc_archive 'CCDC 1134841'
_database_code_CSD               CYTSIN01
loop_
_citation_id
_citation_doi
_citation_year
1 10.1107/S0567740873004292 1973
_audit_creation_method           'Created from the CSD'
_audit_update_record             
;
2018-02-19 downloaded from the CCDC.
;
_database_code_NBS               508475
_chemical_formula_moiety         'C4 H5 N3 O1'
_chemical_name_systematic        Cytosine
_chemical_absolute_configuration unk
_diffrn_ambient_temperature      295
_exptl_crystal_density_diffrn    1.562
#These two values have been output from a single CSD field.
_refine_ls_R_factor_gt           0.031
_refine_ls_wR_factor_gt          0.031
_diffrn_radiation_probe          x-ray
_symmetry_cell_setting           orthorhombic
_symmetry_space_group_name_H-M   'P 21 21 21'
_symmetry_Int_Tables_number      19
_space_group_name_Hall           'P 2ac 2ab'
loop_
_symmetry_equiv_pos_site_id
_symmetry_equiv_pos_as_xyz
1 x,y,z
2 1/2+x,1/2-y,-z
3 -x,1/2+y,1/2-z
4 1/2-x,-y,1/2+z
_cell_length_a                   13.044(2)
_cell_length_b                   9.496(1)
_cell_length_c                   3.814(1)
_cell_angle_alpha                90
_cell_angle_beta                 90
_cell_angle_gamma                90
_cell_volume                     472.424
_cell_formula_units_Z            4
loop_
_atom_site_label
_atom_site_type_symbol
_atom_site_fract_x
_atom_site_fract_y
_atom_site_fract_z
C1 C -0.01640 0.15610 -0.67240
C2 C 0.13080 0.26350 -0.45080
C3 C 0.17050 0.13370 -0.33260
C4 C 0.11340 0.01870 -0.39160
H1 H -0.01300 -0.05700 -0.63700
H2 H 0.15400 0.46300 -0.45900
H3 H 0.24800 0.37800 -0.34800
H4 H 0.23700 0.12800 -0.20400
H5 H 0.13200 -0.07800 -0.30800
N1 N 0.02220 0.02850 -0.55900
N2 N 0.04020 0.27450 -0.61230
N3 N 0.18420 0.38280 -0.40330
O1 O -0.09980 0.15950 -0.82900

#END
