####################################################################### 
# 
# This file contains crystal structure data downloaded from the 
# Cambridge Structural Database (CSD) hosted by the Cambridge 
# Crystallographic Data Centre (CCDC).
# 
# Full information about CCDC data access policies and citation 
# guidelines are available at http://www.ccdc.cam.ac.uk/access/V1 
# 
# Audit and citation data items may have been added by the CCDC. 
# Please retain this information to preserve the provenance of 
# this file and to allow appropriate attribution of the data. 
# 
#######################################################################

data_ECARBM01
#This CIF has been generated from an entry in the Cambridge Structural Database
_database_code_depnum_ccdc_archive 'CCDC 1148417'
_database_code_CSD               ECARBM01
loop_
_citation_id
_citation_doi
_citation_year
1 10.1107/S0365110X67002877 1967
_audit_creation_method           'Created from the CSD'
_audit_update_record             
;
2018-02-19 downloaded from the CCDC.
;
_database_code_NBS               510784
_chemical_name_common            Urethane
_chemical_formula_moiety         'C3 H7 N1 O2'
_chemical_name_systematic        'Ethyl carbamate'
_chemical_absolute_configuration unk
_diffrn_ambient_temperature      168
_exptl_crystal_density_diffrn    1.189
#These two values have been output from a single CSD field.
_refine_ls_R_factor_gt           0.087
_refine_ls_wR_factor_gt          0.087
_diffrn_radiation_probe          x-ray
_symmetry_cell_setting           triclinic
_symmetry_space_group_name_H-M   'P -1'
_symmetry_Int_Tables_number      2
_space_group_name_Hall           '-P 1'
loop_
_symmetry_equiv_pos_site_id
_symmetry_equiv_pos_as_xyz
1 x,y,z
2 -x,-y,-z
_cell_length_a                   5.051(2)
_cell_length_b                   7.011(4)
_cell_length_c                   7.543(3)
_cell_angle_alpha                101.37(5)
_cell_angle_beta                 104.58(5)
_cell_angle_gamma                76.65(3)
_cell_volume                     248.773
_cell_formula_units_Z            2
loop_
_atom_site_label
_atom_site_type_symbol
_atom_site_fract_x
_atom_site_fract_y
_atom_site_fract_z
C1 C -0.13039 -0.20730 0.36452
C2 C -0.21887 -0.40322 0.27521
C3 C 0.00727 -0.71993 0.15288
H1 H -0.30000 -0.14000 0.38300
H2 H 0.04200 -0.23300 0.50000
H3 H -0.10400 -0.11700 0.28300
H4 H -0.29600 -0.45700 0.35800
H5 H -0.36300 -0.40700 0.14200
H6 H 0.42500 -0.80000 0.16700
H7 H 0.25000 -0.96700 0.06700
N1 N 0.25108 -0.83367 0.12828
O1 O 0.03729 -0.53745 0.23785
O2 O -0.21542 -0.77386 0.10596

#END
