####################################################################### 
# 
# This file contains crystal structure data downloaded from the 
# Cambridge Structural Database (CSD) hosted by the Cambridge 
# Crystallographic Data Centre (CCDC).
# 
# Full information about CCDC data access policies and citation 
# guidelines are available at http://www.ccdc.cam.ac.uk/access/V1 
# 
# Audit and citation data items may have been added by the CCDC. 
# Please retain this information to preserve the provenance of 
# this file and to allow appropriate attribution of the data. 
# 
#######################################################################

data_OXALAC04
#This CIF has been generated from an entry in the Cambridge Structural Database
_database_code_depnum_ccdc_archive 'CCDC 1226345'
_database_code_CSD               OXALAC04
loop_
_citation_id
_citation_doi
_citation_year
1 10.1107/S0567740874006820 1974
_audit_creation_method           'Created from the CSD'
_audit_update_record             
;
2018-02-19 downloaded from the CCDC.
;
_database_code_NBS               520655
_chemical_formula_moiety         'C2 H2 O4'
_chemical_name_systematic        'Oxalic acid'
_chemical_absolute_configuration unk
_diffrn_ambient_temperature      295
_exptl_crystal_density_diffrn    1.906
#These two values have been output from a single CSD field.
_refine_ls_R_factor_gt           0.073
_refine_ls_wR_factor_gt          0.073
_diffrn_radiation_probe          x-ray
_symmetry_cell_setting           monoclinic
_symmetry_space_group_name_H-M   'P 21/c'
_symmetry_Int_Tables_number      14
_space_group_name_Hall           '-P 2ybc'
loop_
_symmetry_equiv_pos_site_id
_symmetry_equiv_pos_as_xyz
1 x,y,z
2 -x,1/2+y,1/2-z
3 -x,-y,-z
4 x,1/2-y,1/2+z
_cell_length_a                   5.330(4)
_cell_length_b                   6.015(5)
_cell_length_c                   5.436(4)
_cell_angle_alpha                90
_cell_angle_beta                 115.83(3)
_cell_angle_gamma                90
_cell_volume                     156.866
_cell_formula_units_Z            2
loop_
_atom_site_label
_atom_site_type_symbol
_atom_site_fract_x
_atom_site_fract_y
_atom_site_fract_z
C1 C 0.14410 0.00270 0.00010
H1 H 0.49900 -0.10200 0.18100
O1 O 0.17850 0.10440 -0.17760
O2 O 0.33110 -0.10530 0.20170
C1B C -0.14410 -0.00270 -0.00010
O1B O -0.17850 -0.10440 0.17760
O2B O -0.33110 0.10530 -0.20170
H1B H -0.49900 0.10200 -0.18100

#END
