####################################################################### 
# 
# This file contains crystal structure data downloaded from the 
# Cambridge Structural Database (CSD) hosted by the Cambridge 
# Crystallographic Data Centre (CCDC).
# 
# Full information about CCDC data access policies and citation 
# guidelines are available at http://www.ccdc.cam.ac.uk/access/V1 
# 
# Audit and citation data items may have been added by the CCDC. 
# Please retain this information to preserve the provenance of 
# this file and to allow appropriate attribution of the data. 
# 
#######################################################################

data_PYRAZI01
#This CIF has been generated from an entry in the Cambridge Structural Database
_database_code_depnum_ccdc_archive 'CCDC 1240660'
_database_code_CSD               PYRAZI01
loop_
_citation_id
_citation_doi
_citation_year
1 10.1107/S0567740876009904 1976
_audit_creation_method           'Created from the CSD'
_audit_update_record             
;
2018-02-19 downloaded from the CCDC.
;
_database_code_NBS               523429
_chemical_formula_moiety         'C4 H4 N2'
_chemical_name_systematic        Pyrazine
_chemical_absolute_configuration unk
_diffrn_ambient_temperature      184
_exptl_crystal_density_diffrn    1.306
#These two values have been output from a single CSD field.
_refine_ls_R_factor_gt           0.047
_refine_ls_wR_factor_gt          0.047
_diffrn_radiation_probe          x-ray
_symmetry_cell_setting           orthorhombic
_symmetry_space_group_name_H-M   'P m n n'
_symmetry_Int_Tables_number      58
_space_group_name_Hall           '-P 2n 2'
loop_
_symmetry_equiv_pos_site_id
_symmetry_equiv_pos_as_xyz
1 x,y,z
2 -x,y,z
3 1/2+x,1/2-y,1/2+z
4 1/2-x,1/2-y,1/2+z
5 -x,-y,-z
6 x,-y,-z
7 1/2-x,1/2+y,1/2-z
8 1/2+x,1/2+y,1/2-z
_cell_length_a                   9.325(4)
_cell_length_b                   5.850(2)
_cell_length_c                   3.733(1)
_cell_angle_alpha                90
_cell_angle_beta                 90
_cell_angle_gamma                90
_cell_volume                     203.64
_cell_formula_units_Z            2
loop_
_atom_site_label
_atom_site_type_symbol
_atom_site_fract_x
_atom_site_fract_y
_atom_site_fract_z
N1 N 0.14994 0.00000 0.00000
C1 C 0.07442 0.17735 0.12085
H1 H 0.12800 0.30500 0.19400
C1E C 0.07442 -0.17735 -0.12085
C1A C -0.07442 0.17735 0.12085
C1D C -0.07442 -0.17735 -0.12085
H1E H 0.12800 -0.30500 -0.19400
N1D N -0.14994 0.00000 0.00000
H1A H -0.12800 0.30500 0.19400
H1D H -0.12800 -0.30500 -0.19400

#END
