####################################################################### 
# 
# This file contains crystal structure data downloaded from the 
# Cambridge Structural Database (CSD) hosted by the Cambridge 
# Crystallographic Data Centre (CCDC).
# 
# Full information about CCDC data access policies and citation 
# guidelines are available at http://www.ccdc.cam.ac.uk/access/V1 
# 
# Audit and citation data items may have been added by the CCDC. 
# Please retain this information to preserve the provenance of 
# this file and to allow appropriate attribution of the data. 
# 
#######################################################################

data_PYRZOL05
#This CIF has been generated from an entry in the Cambridge Structural Database
_database_code_depnum_ccdc_archive 'CCDC 1240844'
_database_code_CSD               PYRZOL05
loop_
_citation_id
_citation_doi
_citation_year
1 10.3891/acta.chem.scand.27-1845 1973
_audit_creation_method           'Created from the CSD'
_audit_update_record             
;
2018-02-19 downloaded from the CCDC.
;
_database_code_NBS               523541
_chemical_formula_moiety         'C3 H4 N2'
_chemical_name_systematic        Pyrazole
_chemical_absolute_configuration unk
_diffrn_special_details          'equi-inclination diffractometer data'
_diffrn_ambient_temperature      108
_exptl_crystal_density_diffrn    1.295
#These two values have been output from a single CSD field.
_refine_ls_R_factor_gt           0.054
_refine_ls_wR_factor_gt          0.054
_diffrn_radiation_probe          x-ray
_symmetry_cell_setting           orthorhombic
_symmetry_space_group_name_H-M   'P 21 c n'
_symmetry_Int_Tables_number      33
_space_group_name_Hall           'P -2n 2a'
loop_
_symmetry_equiv_pos_site_id
_symmetry_equiv_pos_as_xyz
1 x,y,z
2 x,1/2-y,1/2+z
3 1/2+x,1/2+y,1/2-z
4 1/2+x,-y,-z
_cell_length_a                   8.190
_cell_length_b                   12.588
_cell_length_c                   6.773
_cell_angle_alpha                90
_cell_angle_beta                 90
_cell_angle_gamma                90
_cell_volume                     698.267
_cell_formula_units_Z            8
loop_
_atom_site_label
_atom_site_type_symbol
_atom_site_fract_x
_atom_site_fract_y
_atom_site_fract_z
C1 C 0.29818 0.05887 0.38435
C3 C 0.39906 0.11710 0.50871
C5 C 0.30324 0.19822 0.57824
H1 H 0.06125 0.21839 0.52798
H3 H 0.31808 0.25651 0.68571
H5 H 0.50781 0.10042 0.53690
H7 H 0.32078 -0.00226 0.32164
N1 N 0.15574 0.18434 0.49784
N3 N 0.14806 0.09867 0.37774
C2 C -0.27314 0.18656 -0.07115
C4 C -0.37880 0.10967 0.00180
C6 C -0.28853 0.05334 0.13638
H2 H -0.05766 0.08611 0.22531
H4 H -0.31569 -0.00516 0.23983
H6 H -0.48813 0.10212 -0.03529
H8 H -0.29569 0.23962 -0.15547
N2 N -0.14062 0.09816 0.13926
N4 N -0.12698 0.18105 0.01329

#END
