####################################################################### 
# 
# This file contains crystal structure data downloaded from the 
# Cambridge Structural Database (CSD) hosted by the Cambridge 
# Crystallographic Data Centre (CCDC).
# 
# Full information about CCDC data access policies and citation 
# guidelines are available at http://www.ccdc.cam.ac.uk/access/V1 
# 
# Audit and citation data items may have been added by the CCDC. 
# Please retain this information to preserve the provenance of 
# this file and to allow appropriate attribution of the data. 
# 
#######################################################################

data_TROXAN11
#This CIF has been generated from an entry in the Cambridge Structural Database
_database_code_depnum_ccdc_archive 'CCDC 1275769'
_database_code_CSD               TROXAN11
loop_
_citation_id
_citation_doi
_citation_year
1 10.1107/S0567740869003712 1969
_audit_creation_method           'Created from the CSD'
_audit_update_record             
;
2018-02-19 downloaded from the CCDC.
;
_database_code_NBS               528931
_chemical_formula_moiety         'C3 H6 O3'
_chemical_name_systematic        s-Trioxane
_chemical_absolute_configuration unk
_diffrn_ambient_temperature      103
_exptl_crystal_density_diffrn    1.456
#These two values have been output from a single CSD field.
_refine_ls_R_factor_gt           0.073
_refine_ls_wR_factor_gt          0.073
_diffrn_radiation_probe          x-ray
_symmetry_cell_setting           rhombohedral
_symmetry_space_group_name_H-M   'R 3 c'
_symmetry_Int_Tables_number      161
_space_group_name_Hall           'R 3 -2"c'
loop_
_symmetry_equiv_pos_site_id
_symmetry_equiv_pos_as_xyz
1 x,y,z
2 1/3+x,2/3+y,2/3+z
3 2/3+x,1/3+y,1/3+z
4 -y,x-y,z
5 -x+y,-x,z
6 1/3-y,2/3+x-y,2/3+z
7 1/3-x+y,2/3-x,2/3+z
8 2/3-y,1/3+x-y,1/3+z
9 2/3-x+y,1/3-x,1/3+z
10 -y,-x,1/2+z
11 1/3-y,2/3-x,1/6+z
12 2/3-y,1/3-x,5/6+z
13 -x+y,y,1/2+z
14 x,x-y,1/2+z
15 1/3-x+y,2/3+y,1/6+z
16 1/3+x,2/3+x-y,1/6+z
17 2/3-x+y,1/3+y,5/6+z
18 2/3+x,1/3+x-y,5/6+z
_cell_length_a                   9.320(6)
_cell_length_b                   9.320(6)
_cell_length_c                   8.196(5)
_cell_angle_alpha                90
_cell_angle_beta                 90
_cell_angle_gamma                120
_cell_volume                     616.544
_chemical_melting_point          64deg.C
_cell_formula_units_Z            6
loop_
_atom_site_label
_atom_site_type_symbol
_atom_site_fract_x
_atom_site_fract_y
_atom_site_fract_z
C1 C 0.13570 0.15210 -0.02820
H1 H 0.13600 0.16500 -0.15800
H2 H 0.23700 0.25200 0.03100
O1 O 0.15140 0.01640 0.02820
O1C O -0.01640 0.13500 0.02820
C1D C 0.01640 -0.13570 -0.02820
C1C C -0.15210 -0.01640 -0.02820
H1D H 0.02900 -0.13600 -0.15800
H2D H 0.01500 -0.23700 0.03100
O1D O -0.13500 -0.15140 0.02820
H1C H -0.16500 -0.02900 -0.15800
H2C H -0.25200 -0.01500 0.03100

#END
