####################################################################### 
# 
# This file contains crystal structure data downloaded from the 
# Cambridge Structural Database (CSD) hosted by the Cambridge 
# Crystallographic Data Centre (CCDC).
# 
# Full information about CCDC data access policies and citation 
# guidelines are available at http://www.ccdc.cam.ac.uk/access/V1 
# 
# Audit and citation data items may have been added by the CCDC. 
# Please retain this information to preserve the provenance of 
# this file and to allow appropriate attribution of the data. 
# 
#######################################################################

data_URACIL
#This CIF has been generated from an entry in the Cambridge Structural Database
_database_code_depnum_ccdc_archive 'CCDC 1278441'
_database_code_CSD               URACIL
loop_
_citation_id
_citation_doi
_citation_year
1 10.1107/S0365110X67004360 1967
_audit_creation_method           'Created from the CSD'
_audit_update_record             
;
2018-02-19 downloaded from the CCDC.
;
_database_code_NBS               529240
_chemical_formula_moiety         'C4 H4 N2 O2'
_chemical_name_systematic        Uracil
_chemical_absolute_configuration unk
_diffrn_ambient_temperature      295
_exptl_crystal_density_diffrn    1.607
#These two values have been output from a single CSD field.
_refine_ls_R_factor_gt           0.045
_refine_ls_wR_factor_gt          0.045
_diffrn_radiation_probe          x-ray
_symmetry_cell_setting           monoclinic
_symmetry_space_group_name_H-M   'P 21/a'
_symmetry_Int_Tables_number      14
_space_group_name_Hall           '-P 2yab'
loop_
_symmetry_equiv_pos_site_id
_symmetry_equiv_pos_as_xyz
1 x,y,z
2 1/2-x,1/2+y,-z
3 -x,-y,-z
4 1/2+x,1/2-y,z
_cell_length_a                   11.938(1)
_cell_length_b                   12.3760(9)
_cell_length_c                   3.6552(3)
_cell_angle_alpha                90
_cell_angle_beta                 120.90(7)
_cell_angle_gamma                90
_cell_volume                     463.386
_cell_formula_units_Z            4
loop_
_atom_site_label
_atom_site_type_symbol
_atom_site_fract_x
_atom_site_fract_y
_atom_site_fract_z
C1 C 0.15191 0.20933 0.00913
C2 C 0.17988 0.01237 0.03494
C3 C 0.30519 0.02857 0.08193
C4 C 0.34620 0.12977 0.08905
H1 H 0.42790 0.14640 0.11200
H2 H 0.29640 0.28040 0.04160
H3 H 0.03430 0.09470 -0.03200
H4 H 0.35360 -0.03220 0.09860
N1 N 0.27283 0.21750 0.05336
N2 N 0.11208 0.10468 0.00406
O1 O 0.08497 0.28677 -0.02173
O2 O 0.12987 -0.07706 0.01962

#END
