####################################################################### 
# 
# This file contains crystal structure data downloaded from the 
# Cambridge Structural Database (CSD) hosted by the Cambridge 
# Crystallographic Data Centre (CCDC).
# 
# Full information about CCDC data access policies and citation 
# guidelines are available at http://www.ccdc.cam.ac.uk/access/V1 
# 
# Audit and citation data items may have been added by the CCDC. 
# Please retain this information to preserve the provenance of 
# this file and to allow appropriate attribution of the data. 
# 
#######################################################################

data_HXMTAM
#This CIF has been generated from an entry in the Cambridge Structural Database
_database_code_depnum_ccdc_archive 'CCDC 1178952'
_database_code_CSD               HXMTAM
loop_
_citation_id
_citation_doi
_citation_year
1 10.1098/rspa.1963.0101 1963
_audit_creation_method           'Created from the CSD'
_audit_update_record             
;
2018-02-26 downloaded from the CCDC.
;
_database_code_NBS               514190
_chemical_formula_moiety         'C6 H12 N4'
_chemical_name_systematic        Hexamethylenetetramine
_chemical_absolute_configuration unk
_diffrn_ambient_temperature      295
_exptl_crystal_density_diffrn    1.345
#These two values have been output from a single CSD field.
_refine_ls_R_factor_gt           0.065
_refine_ls_wR_factor_gt          0.065
_diffrn_radiation_probe          x-ray
_symmetry_cell_setting           cubic
_symmetry_space_group_name_H-M   'I -4 3 m'
_symmetry_Int_Tables_number      217
_space_group_name_Hall           'I -4 2 3'
loop_
_symmetry_equiv_pos_site_id
_symmetry_equiv_pos_as_xyz
1 x,y,z
2 1/2+x,1/2+y,1/2+z
3 z,x,y
4 y,z,x
5 1/2+z,1/2+x,1/2+y
6 1/2+y,1/2+z,1/2+x
7 -y,x,-z
8 1/2-y,1/2+x,1/2-z
9 -x,z,-y
10 -z,y,-x
11 1/2-x,1/2+z,1/2-y
12 1/2-z,1/2+y,1/2-x
13 x,-y,-z
14 1/2+x,1/2-y,1/2-z
15 z,-x,-y
16 y,-z,-x
17 1/2+z,1/2-x,1/2-y
18 1/2+y,1/2-z,1/2-x
19 -y,-x,z
20 1/2-y,1/2-x,1/2+z
21 -x,-z,y
22 -z,-y,x
23 1/2-x,1/2-z,1/2+y
24 1/2-z,1/2-y,1/2+x
25 -x,y,-z
26 1/2-x,1/2+y,1/2-z
27 -z,x,-y
28 -y,z,-x
29 1/2-z,1/2+x,1/2-y
30 1/2-y,1/2+z,1/2-x
31 y,x,z
32 1/2+y,1/2+x,1/2+z
33 x,z,y
34 z,y,x
35 1/2+x,1/2+z,1/2+y
36 1/2+z,1/2+y,1/2+x
37 -x,-y,z
38 1/2-x,1/2-y,1/2+z
39 -z,-x,y
40 -y,-z,x
41 1/2-z,1/2-x,1/2+y
42 1/2-y,1/2-z,1/2+x
43 y,-x,-z
44 1/2+y,1/2-x,1/2-z
45 x,-z,-y
46 z,-y,-x
47 1/2+x,1/2-z,1/2-y
48 1/2+z,1/2-y,1/2-x
_cell_length_a                   7.021
_cell_length_b                   7.021
_cell_length_c                   7.021
_cell_angle_alpha                90
_cell_angle_beta                 90
_cell_angle_gamma                90
_cell_volume                     346.096
_cell_formula_units_Z            2
loop_
_atom_site_label
_atom_site_type_symbol
_atom_site_fract_x
_atom_site_fract_y
_atom_site_fract_z
C1 C 0.23780 0.00000 0.00000
H1 H 0.32750 0.08850 -0.08850
N1 N 0.12320 0.12320 0.12320
H1L H 0.32750 -0.08850 0.08850
C1C C 0.00000 0.00000 0.23780
H1C H 0.08850 -0.08850 0.32750
H1MA H -0.08850 0.08850 0.32750
N1MA N -0.12320 -0.12320 0.12320
C1LA C 0.00000 -0.23780 0.00000
H1LA H 0.08850 -0.32750 0.08850
H1N H -0.08850 -0.32750 -0.08850
N1N N 0.12320 -0.12320 -0.12320
C1O C 0.00000 0.00000 -0.23780
H1O H 0.08850 0.08850 -0.32750
H1AA H -0.08850 -0.08850 -0.32750
N1AA N -0.12320 0.12320 -0.12320
C1Z C 0.00000 0.23780 0.00000
H1Z H 0.08850 0.32750 -0.08850
H1B H -0.08850 0.32750 0.08850
C1X C -0.23780 0.00000 0.00000
H1X H -0.32750 0.08850 0.08850
H1JA H -0.32750 -0.08850 -0.08850

#END
