####################################################################### 
# 
# This file contains crystal structure data downloaded from the 
# Cambridge Structural Database (CSD) hosted by the Cambridge 
# Crystallographic Data Centre (CCDC).
# 
# Full information about CCDC data access policies and citation 
# guidelines are available at http://www.ccdc.cam.ac.uk/access/V1 
# 
# Audit and citation data items may have been added by the CCDC. 
# Please retain this information to preserve the provenance of 
# this file and to allow appropriate attribution of the data. 
# 
#######################################################################

data_C4-120
_audit_block_doi                 10.5517/cc106hvk
_database_code_depnum_ccdc_archive 'CCDC 929778'
loop_
_citation_id
_citation_doi
_citation_year
1 10.1021/cg400668w 2013
_audit_update_record             
;
2013-03-18 deposited with the CCDC.
2018-02-26 downloaded from the CCDC.
;
#TrackingRef 'diacid-nte-completecif.cif'

_audit_creation_date             2012-11-19
_audit_creation_method           
;
Olex2 1.2
(compiled 2012.05.09 svn.r2324, GUI svn.r4230)
;

_chemical_name_common            C4-beta-polymorph
_chemical_name_systematic        '1,4-Butanedioic acid'
_chemical_formula_moiety         'C4 H6 O4'
_chemical_formula_sum            'C4 H6 O4'
_chemical_formula_weight         118.09
_chemical_melting_point          ?

loop_
_atom_type_symbol
_atom_type_description
_atom_type_scat_dispersion_real
_atom_type_scat_dispersion_imag
_atom_type_scat_source
C C 0.0033 0.0016 'International Tables Vol C Tables 4.2.6.8 and 6.1.1.4'
H H 0.0000 0.0000 'International Tables Vol C Tables 4.2.6.8 and 6.1.1.4'
N N 0.0061 0.0033 'International Tables Vol C Tables 4.2.6.8 and 6.1.1.4'
O O 0.0106 0.0060 'International Tables Vol C Tables 4.2.6.8 and 6.1.1.4'

_space_group_crystal_system      monoclinic
_space_group_IT_number           14
_space_group_name_H-M_alt        'P 1 21/a 1'
_space_group_name_Hall           '-P 2yab'
loop_
_space_group_symop_id
_space_group_symop_operation_xyz
1 'x, y, z'
2 '-x+1/2, y+1/2, -z'
3 '-x, -y, -z'
4 'x-1/2, -y-1/2, z'

_cell_length_a                   5.0205(3)
_cell_length_b                   8.7680(6)
_cell_length_c                   5.4662(3)
_cell_angle_alpha                90.00
_cell_angle_beta                 93.043(6)
_cell_angle_gamma                90.00
_cell_volume                     240.28(3)
_cell_formula_units_Z            2
_cell_measurement_reflns_used    587
_cell_measurement_temperature    120(2)
_cell_measurement_theta_max      29.1146
_cell_measurement_theta_min      3.7252
_exptl_absorpt_coefficient_mu    0.150
_exptl_absorpt_correction_T_max  1.00000
_exptl_absorpt_correction_T_min  0.69227
_exptl_absorpt_correction_type   multi-scan
_exptl_absorpt_process_details   
;
CrysAlisPro, Agilent Technologies,
Version 1.171.36.20 (release 27-06-2012 CrysAlis171 .NET)
(compiled Jul 11 2012,15:38:31)
Empirical absorption correction using spherical harmonics,
implemented in SCALE3 ABSPACK scaling algorithm.
;
_exptl_crystal_colour            colourless
_exptl_crystal_density_diffrn    1.632
_exptl_crystal_density_meas      ?
_exptl_crystal_density_method    'not measured'
_exptl_crystal_description       block
_exptl_crystal_F_000             124
_exptl_crystal_size_max          0.34
_exptl_crystal_size_mid          0.32
_exptl_crystal_size_min          0.28
_exptl_special_details           
;
?
;
_diffrn_reflns_av_R_equivalents  0.0153
_diffrn_reflns_av_unetI/netI     0.0231
_diffrn_reflns_limit_h_max       6
_diffrn_reflns_limit_h_min       -6
_diffrn_reflns_limit_k_max       10
_diffrn_reflns_limit_k_min       -11
_diffrn_reflns_limit_l_max       6
_diffrn_reflns_limit_l_min       -7
_diffrn_reflns_number            1140
_diffrn_reflns_theta_full        25.00
_diffrn_reflns_theta_max         29.18
_diffrn_reflns_theta_min         3.73
_diffrn_ambient_temperature      120(2)
_diffrn_detector_area_resol_mean 15.9821
_diffrn_measured_fraction_theta_full 0.9962
_diffrn_measured_fraction_theta_max 0.9615
_diffrn_measurement_details      
;
#__ type_ start__ end____ width___ exp.time_
1 omega -69.00 -33.00 1.0000 1.0000
omega____ theta____ kappa____ phi______ frames
- -17.4960 179.0000 0.0000 36

#__ type_ start__ end____ width___ exp.time_
2 omega -19.00 50.00 1.0000 1.0000
omega____ theta____ kappa____ phi______ frames
- -17.4960 57.0000 150.0000 69

#__ type_ start__ end____ width___ exp.time_
3 omega -9.00 86.00 1.0000 1.0000
omega____ theta____ kappa____ phi______ frames
- 19.2928 77.0000 -90.0000 95

#__ type_ start__ end____ width___ exp.time_
4 omega -25.00 18.00 1.0000 1.0000
omega____ theta____ kappa____ phi______ frames
- 19.2928 -99.0000 -30.0000 43
;
_diffrn_measurement_device_type  'Xcalibur, Eos'
_diffrn_measurement_method       '\w scans'
_diffrn_orient_matrix_UB_11      -0.0983152000
_diffrn_orient_matrix_UB_12      -0.0361038000
_diffrn_orient_matrix_UB_13      0.0684064000
_diffrn_orient_matrix_UB_21      0.0202855000
_diffrn_orient_matrix_UB_22      -0.0690900000
_diffrn_orient_matrix_UB_23      -0.0638684000
_diffrn_orient_matrix_UB_31      0.0998199000
_diffrn_orient_matrix_UB_32      -0.0215109000
_diffrn_orient_matrix_UB_33      0.0900978000
_diffrn_radiation_monochromator  graphite
_diffrn_radiation_type           'Mo K\a'
_diffrn_radiation_wavelength     0.7107
_diffrn_source                   'Enhance (Mo) X-ray Source'
_diffrn_standards_decay_%        ?
_diffrn_standards_interval_count ?
_diffrn_standards_interval_time  ?
_diffrn_standards_number         ?
_reflns_number_gt                522
_reflns_number_total             555
_reflns_threshold_expression     >2sigma(I)
_computing_cell_refinement       
;
CrysAlisPro, Agilent Technologies,
Version 1.171.36.20 (release 27-06-2012 CrysAlis171 .NET)
(compiled Jul 11 2012,15:38:31)
;
_computing_data_collection       
;
CrysAlisPro, Agilent Technologies,
Version 1.171.36.20 (release 27-06-2012 CrysAlis171 .NET)
(compiled Jul 11 2012,15:38:31)
;
_computing_data_reduction        
;
CrysAlisPro, Agilent Technologies,
Version 1.171.36.20 (release 27-06-2012 CrysAlis171 .NET)
(compiled Jul 11 2012,15:38:31)
;
_computing_molecular_graphics    
;
O. V. Dolomanov, L. J. Bourhis, R. J. Gildea, J. A. K. Howard and H. Puschmann,
OLEX2: a complete structure solution, refinement and analysis program.
J. Appl. Cryst. (2009). 42, 339-341.
;
_computing_publication_material  
;
O. V. Dolomanov, L. J. Bourhis, R. J. Gildea, J. A. K. Howard and H. Puschmann,
OLEX2: a complete structure solution, refinement and analysis program.
J. Appl. Cryst. (2009). 42, 339-341.
;
_computing_structure_refinement  
;
SHELXL, G.M. Sheldrick, Acta Cryst.
(2008). A64, 112-122
;
_computing_structure_solution    
;
SHELXS, G.M. Sheldrick, Acta Cryst.
(2008). A64, 112-122
;
_refine_diff_density_max         0.366
_refine_diff_density_min         -0.276
_refine_diff_density_rms         0.057
_refine_ls_extinction_coef       ?
_refine_ls_extinction_method     none
_refine_ls_goodness_of_fit_ref   1.072
_refine_ls_hydrogen_treatment    mixed
_refine_ls_matrix_type           full
_refine_ls_number_parameters     41
_refine_ls_number_reflns         555
_refine_ls_number_restraints     0
_refine_ls_R_factor_all          0.0378
_refine_ls_R_factor_gt           0.0361
_refine_ls_restrained_S_all      1.072
_refine_ls_shift/su_max          0.000
_refine_ls_shift/su_mean         0.000
_refine_ls_structure_factor_coef Fsqd
_refine_ls_weighting_details     
'calc w=1/[\s^2^(Fo^2^)+(0.0561P)^2^+0.0799P] where P=(Fo^2^+2Fc^2^)/3'
_refine_ls_weighting_scheme      calc
_refine_ls_wR_factor_gt          0.0965
_refine_ls_wR_factor_ref         0.0977
_refine_special_details          
;
Refinement of F^2^ against ALL reflections. The weighted R-factor wR and
goodness of fit S are based on F^2^, conventional R-factors R are based
on F, with F set to zero for negative F^2^. The threshold expression of
F^2^ > 2sigma(F^2^) is used only for calculating R-factors(gt) etc. and is
not relevant to the choice of reflections for refinement. R-factors based
on F^2^ are statistically about twice as large as those based on F, and R-
factors based on ALL data will be even larger.
Carbon bonded hydrogen atoms have been placed in calculated positions.
Hydrogen involved in hydrogen bonding have been isotropically refined
without any constraints.
;
_atom_sites_solution_hydrogens   geom
_atom_sites_solution_primary     direct
_atom_sites_solution_secondary   difmap
loop_
_atom_site_label
_atom_site_type_symbol
_atom_site_fract_x
_atom_site_fract_y
_atom_site_fract_z
_atom_site_U_iso_or_equiv
_atom_site_adp_type
_atom_site_occupancy
_atom_site_symmetry_multiplicity
_atom_site_calc_flag
_atom_site_refinement_flags
_atom_site_disorder_assembly
_atom_site_disorder_group
O2 O 0.74853(18) 0.64092(11) 0.56961(15) 0.0157(3) Uani 1 1 d . . .
O1 O 0.88048(17) 0.42197(10) 0.74952(14) 0.0138(3) Uani 1 1 d . . .
C2 C 0.5261(2) 0.56740(13) 0.9176(2) 0.0109(3) Uani 1 1 d . . .
H2B H 0.3581 0.5957 0.8258 0.013 Uiso 1 1 calc R . .
H2A H 0.5836 0.6557 1.0203 0.013 Uiso 1 1 calc R . .
C1 C 0.7361(2) 0.53404(13) 0.73875(19) 0.0094(3) Uani 1 1 d . . .
H2 H 0.888(4) 0.615(2) 0.465(4) 0.045(6) Uiso 1 1 d . . .

loop_
_atom_site_aniso_label
_atom_site_aniso_U_11
_atom_site_aniso_U_22
_atom_site_aniso_U_33
_atom_site_aniso_U_23
_atom_site_aniso_U_13
_atom_site_aniso_U_12
O2 0.0170(5) 0.0139(5) 0.0174(5) 0.0057(3) 0.0116(4) 0.0038(3)
O1 0.0147(5) 0.0126(5) 0.0150(5) 0.0016(3) 0.0084(3) 0.0033(3)
C2 0.0113(6) 0.0096(6) 0.0124(6) -0.0006(4) 0.0066(4) 0.0008(4)
C1 0.0093(5) 0.0098(6) 0.0094(6) -0.0012(4) 0.0028(4) -0.0028(4)

_geom_special_details            
;
All esds (except the esd in the dihedral angle between two l.s. planes)
are estimated using the full covariance matrix. The cell esds are taken
into account individually in the estimation of esds in distances, angles
and torsion angles; correlations between esds in cell parameters are only
used when they are defined by crystal symmetry. An approximate (isotropic)
treatment of cell esds is used for estimating esds involving l.s. planes.
;
loop_
_geom_bond_atom_site_label_1
_geom_bond_atom_site_label_2
_geom_bond_distance
_geom_bond_site_symmetry_2
_geom_bond_publ_flag
O2 C1 1.3202(14) . ?
O2 H2 0.95(2) . ?
O1 C1 1.2205(14) . ?
C2 C2 1.517(2) 3_667 ?
C2 H2B 0.9900 . ?
C2 H2A 0.9900 . ?
C2 C1 1.5044(14) . ?

loop_
_geom_angle_atom_site_label_1
_geom_angle_atom_site_label_2
_geom_angle_atom_site_label_3
_geom_angle
_geom_angle_site_symmetry_1
_geom_angle_site_symmetry_3
_geom_angle_publ_flag
C1 O2 H2 108.3(13) . . ?
C2 C2 H2B 109.1 3_667 . ?
C2 C2 H2A 109.1 3_667 . ?
H2B C2 H2A 107.8 . . ?
C1 C2 C2 112.54(12) . 3_667 ?
C1 C2 H2B 109.1 . . ?
C1 C2 H2A 109.1 . . ?
O2 C1 C2 112.21(10) . . ?
O1 C1 O2 123.73(10) . . ?
O1 C1 C2 124.06(10) . . ?

loop_
_geom_torsion_atom_site_label_1
_geom_torsion_atom_site_label_2
_geom_torsion_atom_site_label_3
_geom_torsion_atom_site_label_4
_geom_torsion
_geom_torsion_site_symmetry_1
_geom_torsion_site_symmetry_2
_geom_torsion_site_symmetry_3
_geom_torsion_site_symmetry_4
_geom_torsion_publ_flag
C2 C2 C1 O2 169.17(12) 3_667 . . . ?
C2 C2 C1 O1 -11.49(19) 3_667 . . . ?
